12 48 3 10
14 2 7 9 8 15 8 8 11 3 17 17 10 13 20 12 8 6 4 16 19 5 4 12 3 13 10 15 8 20 19 9 10 13 1 20 6 19 2 8 5 1 14 15 9 20 16 17 
1.43 2.54 1.73 10.41 11.47 13.41 14.56 13.58 14.52 2.81 1.93 4.45 1.35 5.95 11.71 12.33 11.79 0.65 11.56 6.02 5.74 11.44 1.37 5.44 7.59 3.29 8.25 3.46 11.24 9.46 9.66 6.86 5.12 12.13 11.98 7.31 10.47 14.38 11.34 8.79 0.96 1.3 0.61 8.74 7.61 10.39 7.77 12.22 
4.04 3.15 4.28 9.18 8.35 5.47 11.72 6.22 2.91 5.34 6.05 3.67 4.66 11.36 9.37 2.05 14.08 9.71 13.62 2.05 8.6 14.55 13.17 5.27 7.28 8.53 11.93 14.38 5.42 12.91 0.27 9.46 14.71 9.44 8.65 1.58 9.62 4.34 5.55 7.05 4.92 10.69 12.09 12.71 14.28 2 4.52 6.6 
6.7 4.36 13.53 6.98 4.98 5.29 7.56 1.98 6.4 7.8 10.85 12.38 11.03 2.59 9.78 6.31 2.09 0.06 11.59 3.93 13.97 15.69 10.42 2.4 4.36 11.33 0.62 11.26 5 10.38 4.44 2.34 7.64 8.18 0.24 15.4 4.71 0.23 0.2 9 1.96 5.5 14.47 2.44 4.41 2.65 0.76 15.12 
8 8 8 8 8 8 8 8 8 8 8 8 8 8 8 8 8 8 8 8 8 8 8 8 8 8 8 8 8 8 8 8 8 8 8 8 8 8 8 8 8 8 8 8 8 8 8 8 
3.52 9.14 3.82 15.61 4.06 5.17 8.31 15.33 11.52 8.21 5.18 2.51 2.45 12.12 5.64 0.34 1.04 9.63 9.15 4.96 12.28 12.52 9.21 4.54 8.59 13.51 15.92 13.42 15.29 15.15 12.84 10.11 5.13 11.26 6.59 8.53 11.42 2.66 15.21 5.9 2.52 7.63 9.03 3.83 5.73 0.81 0.94 4.52 
14.28 2.09 10.35 15.79 3.07 3.5 15.07 7.71 15.57 11.12 15.31 14.72 11.5 8.24 5.81 11.8 8.01 6.56 7.46 8.62 0.74 7.9 11.06 2.94 13.35 5.54 1.82 3.15 1.36 2.15 9.48 8.09 7.99 6.45 11.37 0.63 12.61 7.35 11.49 1.41 11.78 10.29 1.62 4.72 10.65 6.79 6.19 3.83 
10.3 6.32 5.57 6.26 6.02 6.2 8.2 9.8 0.86 2.2 7.76 10.15 1.51 11.41 4.37 10.97 1.32 13.63 6.57 2.14 9.63 9.72 6.5 0.66 2.66 0.43 5.85 15.5 0.29 4.05 4.1 8.25 1.95 14.25 8.96 0.89 0.21 2.09 7.5 5.49 0.22 11.72 6.89 7.53 5.88 7.18 1.26 3.76 
2.75 12.01 9.7 8.09 2.59 10.94 8.64 5.51 13.07 0.28 15.22 12.01 12.41 9.55 14.65 10.11 11.27 5.89 4.48 15.16 5.78 14.41 11.88 15.01 3.63 5.16 3.15 10.06 3.97 15.32 2.97 12.42 9.8 12.91 14.07 6.7 0.37 5.54 3.14 1.58 5.76 10.8 14.93 12.31 3.78 8.52 13.42 14.18 
1.04 0.82 4.93 8.83 2.02 10.63 0.12 9.75 5.31 11.9 9.18 12.05 14.05 7.46 11.72 4.19 5.51 15.07 5.13 0.45 2.61 0.84 6.82 3.04 2.1 4.16 5.46 15.13 10.43 0.49 15.11 0.63 6.39 9.8 6.88 8.41 3.51 7.72 12.48 10.63 2.01 7.15 15.87 9.5 15.77 15.7 15.46 10.01 
3.39 11.44 8.27 12.32 14.64 0.7 10.2 1.09 8.83 5.76 0.72 15.69 15.31 12.38 15.39 11.92 9.22 1.19 3.2 2.18 8.96 14.57 6.49 12.69 0.01 0.54 10.56 0.54 10.86 12.11 0.12 12.89 9.14 4.61 6.28 6.19 5.44 2.73 11.19 2.44 3.53 12.08 10.63 4.45 7.76 3.09 11.55 15.63 
13.67 13.28 15.19 2.08 13.8 10.46 7.66 9.53 9.77 2.86 3.96 7.27 13.09 13.58 9.04 3.11 3.95 2.53 1.91 10.23 10.71 15.51 15.49 12.66 13.06 3.1 1.87 6.01 8.71 8.42 1.54 9.42 4.24 15.49 0.45 4.11 6.14 15.85 6.96 11.14 3.08 12 6.8 11.77 6.43 9.36 9.32 0.96 
2.04 6.72 2.42 10.59 2.71 7.51 11.86 6.21 2.78 12.53 5.12 3.89 5.17 5.44 14.78 4.35 4.25 2.93 0.69 9.16 10.96 14.85 14.01 4.27 13.83 7.96 6 7.62 11.98 9.27 2.53 11.54 15.7 3.45 14.96 13.56 6.83 6.77 6.7 14.48 9.9 11.07 11.26 2.9 13.57 10.74 3.66 4.44 
1 1 1 1 1 1 1 1 1 1 1 1 1 1 1 1 1 1 1 1 1 1 1 1 1 1 1 1 1 1 1 1 1 1 1 1 1 1 1 1 1 1 1 1 1 1 1 1 
1 1 1 1 1 1 1 1 1 1 1 1 1 1 1 1 1 1 1 1 1 1 1 1 1 1 1 1 1 1 1 1 1 1 1 1 1 1 1 1 1 1 1 1 1 1 1 1 
1 1 1 1 1 1 1 1 1 1 1 1 1 1 1 1 1 1 1 1 1 1 1 1 1 1 1 1 1 1 1 1 1 1 1 1 1 1 1 1 1 1 1 1 1 1 1 1 
1 1 1 1 1 1 1 1 1 1 1 1 1 1 1 1 1 1 1 1 1 1 1 1 1 1 1 1 1 1 1 1 1 1 1 1 1 1 1 1 1 1 1 1 1 1 1 1 
1 1 1 1 1 1 1 1 1 1 1 1 1 1 1 1 1 1 1 1 1 1 1 1 1 1 1 1 1 1 1 1 1 1 1 1 1 1 1 1 1 1 1 1 1 1 1 1 
1 1 1 1 1 1 1 1 1 1 1 1 1 1 1 1 1 1 1 1 1 1 1 1 1 1 1 1 1 1 1 1 1 1 1 1 1 1 1 1 1 1 1 1 1 1 1 1 
1 1 1 1 1 1 1 1 1 1 1 1 1 1 1 1 1 1 1 1 1 1 1 1 1 1 1 1 1 1 1 1 1 1 1 1 1 1 1 1 1 1 1 1 1 1 1 1 
1 1 1 1 1 1 1 1 1 1 1 1 1 1 1 1 1 1 1 1 1 1 1 1 1 1 1 1 1 1 1 1 1 1 1 1 1 1 1 1 1 1 1 1 1 1 1 1 
1 1 1 1 1 1 1 1 1 1 1 1 1 1 1 1 1 1 1 1 1 1 1 1 1 1 1 1 1 1 1 1 1 1 1 1 1 1 1 1 1 1 1 1 1 1 1 1 
1 1 1 1 1 1 1 1 1 1 1 1 1 1 1 1 1 1 1 1 1 1 1 1 1 1 1 1 1 1 1 1 1 1 1 1 1 1 1 1 1 1 1 1 1 1 1 1 
1 1 1 1 1 1 1 1 1 1 1 1 1 1 1 1 1 1 1 1 1 1 1 1 1 1 1 1 1 1 1 1 1 1 1 1 1 1 1 1 1 1 1 1 1 1 1 1 
1 1 1 1 1 1 1 1 1 1 1 1 1 1 1 1 1 1 1 1 1 1 1 1 1 1 1 1 1 1 1 1 1 1 1 1 1 1 1 1 1 1 1 1 1 1 1 1 
0.01 0.01 0.01 0.01 0.01 0.01 0.01 0.01 0.01 0.01 0.01 0.01 0.01 0.01 0.01 0.01 0.01 0.01 0.01 0.01 0.01 0.01 0.01 0.01 0.01 0.01 0.01 0.01 0.01 0.01 0.01 0.01 0.01 0.01 0.01 0.01 0.01 0.01 0.01 0.01 0.01 0.01 0.01 0.01 0.01 0.01 0.01 0.01 
0.02 0.02 0.02 0.02 0.02 0.02 0.02 0.02 0.02 0.02 0.02 0.02 0.02 0.02 0.02 0.02 0.02 0.02 0.02 0.02 0.02 0.02 0.02 0.02 0.02 0.02 0.02 0.02 0.02 0.02 0.02 0.02 0.02 0.02 0.02 0.02 0.02 0.02 0.02 0.02 0.02 0.02 0.02 0.02 0.02 0.02 0.02 0.02 
0.03 0.03 0.03 0.03 0.03 0.03 0.03 0.03 0.03 0.03 0.03 0.03 0.03 0.03 0.03 0.03 0.03 0.03 0.03 0.03 0.03 0.03 0.03 0.03 0.03 0.03 0.03 0.03 0.03 0.03 0.03 0.03 0.03 0.03 0.03 0.03 0.03 0.03 0.03 0.03 0.03 0.03 0.03 0.03 0.03 0.03 0.03 0.03 
0.04 0.04 0.04 0.04 0.04 0.04 0.04 0.04 0.04 0.04 0.04 0.04 0.04 0.04 0.04 0.04 0.04 0.04 0.04 0.04 0.04 0.04 0.04 0.04 0.04 0.04 0.04 0.04 0.04 0.04 0.04 0.04 0.04 0.04 0.04 0.04 0.04 0.04 0.04 0.04 0.04 0.04 0.04 0.04 0.04 0.04 0.04 0.04 
0.125 0.125 0.125 0.125 0.125 0.125 0.125 0.125 0.125 0.125 0.125 0.125 0.125 0.125 0.125 0.125 0.125 0.125 0.125 0.125 0.125 0.125 0.125 0.125 0.125 0.125 0.125 0.125 0.125 0.125 0.125 0.125 0.125 0.125 0.125 0.125 0.125 0.125 0.125 0.125 0.125 0.125 0.125 0.125 0.125 0.125 0.125 0.125 
0.25 0.25 0.25 0.25 0.25 0.25 0.25 0.25 0.25 0.25 0.25 0.25 0.25 0.25 0.25 0.25 0.25 0.25 0.25 0.25 0.25 0.25 0.25 0.25 0.25 0.25 0.25 0.25 0.25 0.25 0.25 0.25 0.25 0.25 0.25 0.25 0.25 0.25 0.25 0.25 0.25 0.25 0.25 0.25 0.25 0.25 0.25 0.25 
0.375 0.375 0.375 0.375 0.375 0.375 0.375 0.375 0.375 0.375 0.375 0.375 0.375 0.375 0.375 0.375 0.375 0.375 0.375 0.375 0.375 0.375 0.375 0.375 0.375 0.375 0.375 0.375 0.375 0.375 0.375 0.375 0.375 0.375 0.375 0.375 0.375 0.375 0.375 0.375 0.375 0.375 0.375 0.375 0.375 0.375 0.375 0.375 
0.5 0.5 0.5 0.5 0.5 0.5 0.5 0.5 0.5 0.5 0.5 0.5 0.5 0.5 0.5 0.5 0.5 0.5 0.5 0.5 0.5 0.5 0.5 0.5 0.5 0.5 0.5 0.5 0.5 0.5 0.5 0.5 0.5 0.5 0.5 0.5 0.5 0.5 0.5 0.5 0.5 0.5 0.5 0.5 0.5 0.5 0.5 0.5 
0.625 0.625 0.625 0.625 0.625 0.625 0.625 0.625 0.625 0.625 0.625 0.625 0.625 0.625 0.625 0.625 0.625 0.625 0.625 0.625 0.625 0.625 0.625 0.625 0.625 0.625 0.625 0.625 0.625 0.625 0.625 0.625 0.625 0.625 0.625 0.625 0.625 0.625 0.625 0.625 0.625 0.625 0.625 0.625 0.625 0.625 0.625 0.625 
0.75 0.75 0.75 0.75 0.75 0.75 0.75 0.75 0.75 0.75 0.75 0.75 0.75 0.75 0.75 0.75 0.75 0.75 0.75 0.75 0.75 0.75 0.75 0.75 0.75 0.75 0.75 0.75 0.75 0.75 0.75 0.75 0.75 0.75 0.75 0.75 0.75 0.75 0.75 0.75 0.75 0.75 0.75 0.75 0.75 0.75 0.75 0.75 
0.875 0.875 0.875 0.875 0.875 0.875 0.875 0.875 0.875 0.875 0.875 0.875 0.875 0.875 0.875 0.875 0.875 0.875 0.875 0.875 0.875 0.875 0.875 0.875 0.875 0.875 0.875 0.875 0.875 0.875 0.875 0.875 0.875 0.875 0.875 0.875 0.875 0.875 0.875 0.875 0.875 0.875 0.875 0.875 0.875 0.875 0.875 0.875 
1 1 1 1 1 1 1 1 1 1 1 1 1 1 1 1 1 1 1 1 1 1 1 1 1 1 1 1 1 1 1 1 1 1 1 1 1 1 1 1 1 1 1 1 1 1 1 1 
